10
0.0	3.61	2.83	2.24	4.24	1.41	1.41	3.0	5.0	3.16	
3.61	0.0	1.0	1.41	1.0	2.24	3.61	2.0	1.41	3.0	
2.83	1.0	0.0	1.0	1.41	1.41	3.16	2.24	2.24	3.16	
2.24	1.41	1.0	0.0	2.24	1.0	2.24	1.41	2.83	2.24	
4.24	1.0	1.41	2.24	0.0	2.83	4.47	3.0	1.0	4.0	
1.41	2.24	1.41	1.0	2.83	0.0	2.0	2.24	3.61	2.83	
1.41	3.61	3.16	2.24	4.47	2.0	0.0	2.24	5.0	2.0	
3.0	2.0	2.24	1.41	3.0	2.24	2.24	0.0	3.16	1.0	
5.0	1.41	2.24	2.83	1.0	3.61	5.0	3.16	0.0	4.12	
3.16	3.0	3.16	2.24	4.0	2.83	2.0	1.0	4.12	0.0	
